
Gurobi 9.5.2 (win64, C++) logging started Sun Dec  8 23:40:02 2024

Set parameter LogFile to value "mip1.log"
Gurobi Optimizer version 9.5.2 build v9.5.2rc0 (win64)
Thread count: 14 physical cores, 20 logical processors, using up to 20 threads
Optimize a model with 2 rows, 3 columns and 5 nonzeros
Model fingerprint: 0x95ed2921
Model has 2 quadratic objective terms
Coefficient statistics:
  Matrix range     [1e+00, 3e+00]
  Objective range  [2e+00, 3e+00]
  QObjective range [2e+00, 2e+00]
  Bounds range     [1e+00, 1e+00]
  RHS range        [1e+00, 4e+00]
Presolve removed 2 rows and 3 columns
Presolve time: 0.00s
Presolve: All rows and columns removed

Barrier solved model in 0 iterations and 0.00 seconds (0.00 work units)
Optimal objective -3.64000000e+00
